(set-info :Origin "This instance was generated by: BanditFuzz-- an RL fuzzer for SMT solvers" )
(set-info :Author "Joe Scott, Fed Mora, Vijay Ganesh" )
(set-info :Contact "Joe Scott, joseph.scott@uwaterloo.ca")
(set-logic QF_BV)
(declare-const bool_0 Bool)
(declare-const bool_1 Bool)
(declare-const bool_2 Bool)
(declare-const bool_3 Bool)
(declare-const bool_4 Bool)
(declare-const bv_0 (_ BitVec 32))
(declare-const bv_1 (_ BitVec 32))
(declare-const bv_2 (_ BitVec 32))
(declare-const bv_3 (_ BitVec 32))
(declare-const bv_4 (_ BitVec 32))
(assert (bvule (bvsrem (bvadd bv_1 bv_3) (bvsub #x10992c1a  #xb37ccd95 )) (bvurem (bvsmod bv_1 #x09166204 ) (bvnand #x0e13da4b  bv_1))))
(assert (bvult (bvmul (bvmul bv_0 bv_0) (bvsmod #x1eb84035  bv_2)) (bvashr (bvor bv_2 bv_0) (bvmul bv_0 bv_3))))
(assert (=> (or (bvule bv_0 #x57b98480 ) (or false bool_3)) (bvsle (bvlshr #x53cfffbd  #x1232ebed ) (bvsub #x12d2310f  #x7d317f6d ))))
(assert (or (or (xor true bool_2) (bvslt bv_3 #x177aaa42 )) (=> (xor bool_4 bool_0) (bvule bv_1 #xb872999b ))))
(assert (bvuge (bvor (bvsdiv bv_0 bv_1) (bvnor bv_2 #xe142125b )) (bvshl (bvor #xa9d49415  #x83f1abfe ) (bvand bv_1 bv_2))))
(check-sat)
(exit)
